[[19, 35, 53, 14, 59, 11, 66, 65, 38, 10, 58, 72, 31, 39, 9, 25, 55, 18, 50, 32], [40, 44, 3, 51, 16, 24, 49, 63, 23, 56, 43, 41, 42, 64, 22, 73, 33, 62, 2, 74, 28, 61, 21, 48, 47], [36, 69, 71, 60, 70, 20, 37, 5, 15, 57, 27, 29, 45, 30, 4, 68, 75, 6, 76, 17, 12, 26, 67, 7, 8, 46, 34, 52, 13, 54]]